0---0
| 2 |
0---0

a AND b AND ~c AND ~d
b AND c AND ~a AND ~d
c AND d AND ~a AND ~c
d AND a AND ~b AND ~c
a AND c AND ~b AND ~d
b AND d AND ~a AND ~c

--------------------------------------------
p cnf 4 6
1 2 -3 -4 0
2 3 -1 -4 0
3 4 -1 -2 0
4 1 -2 -3 0
1 3 -2 -4 0
2 4 -1 -3 0


